instances/knapsack/discrete/knapsack_100_7.kp
8766
100
445

34 3.4 8
46 4.6 13
100 10.0 2
65 6.5 66
62 6.2 80
28 2.8 83
23 2.3 24
74 7.4 30
27 2.7 93
28 2.8 21
42 4.2 69
57 5.7 45
34 3.4 69
30 3.0 40
39 3.9 69
7 0.7 70
31 3.1 40
26 2.6 8
67 6.7 13
32 3.2 72
23 2.3 68
6 0.6 77
74 7.4 70
29 2.9 2
71 7.1 95
78 7.8 73
32 3.2 82
54 5.4 94
8 0.8 92
9 0.9 51
80 8.0 15
54 5.4 82
62 6.2 74
83 8.3 5
42 4.2 6
19 1.9 7
78 7.8 75
31 3.1 41
82 8.2 85
77 7.7 62
69 6.9 10
28 2.8 76
48 4.8 16
80 8.0 41
57 5.7 45
57 5.7 77
96 9.6 47
60 6.0 39
69 6.9 11
30 3.0 88
5 0.5 1
34 3.4 1
35 3.5 89
54 5.4 19
31 3.1 50
54 5.4 44
55 5.5 77
49 4.9 50
94 9.4 70
8 0.8 21
63 6.3 46
45 4.5 28
14 1.4 12
57 5.7 4
18 1.8 85
82 8.2 75
59 5.9 35
45 4.5 4
6 0.6 51
44 4.4 20
80 8.0 51
24 2.4 9
52 5.2 35
85 8.5 28
54 5.4 97
39 3.9 52
17 1.7 56
41 4.1 47
59 5.9 46
21 2.1 70
60 6.0 65
8 0.8 72
1 0.1 100
76 7.6 48
44 4.4 95
52 5.2 3
66 6.6 76
22 2.2 61
16 1.6 6
57 5.7 53
63 6.3 52
47 4.7 28
39 3.9 96
38 3.8 79
78 7.8 38
35 3.5 5
11 1.1 3
75 7.5 42
86 8.6 83
42 4.2 71

45132
481

[0.15 3.43 2.58 2.82 3.45 4.61 1.53 0.49 2.91 0.75 3.73 2.56 0.76 1.19 1.58 2.05 4.31 1.71 3.74 3.02 0.55 3.36 3.92 1.6 0.98 0.44 0.25 3.58 4.16 3.24 1.23 0.27 0.98 0.8 4.78 0.1 1.17 4.48 0.62 4.79 3.06 2.44 0.78 3.85 4.28 2.78 1.09 3.76 0.81 1.88 2.85 0.25 3.27 1.27 3.57 1.26 2.77 3.7 0.07 4.32 0.55 2.24 3.39 4.07 1.04 3.83 2.69 1.51 4.57 2.96 0.26 1.4 2.76 2.27 3.36 1.07 1.89 0.33 4.29 2.84 4.24 1.92 3.87 4.12 3.81 3.24 1.51 2.0 3.37 4.31 1.58 4.52 0.54 3.37 0.99 1.64 0.99 2.3 4.04 0.36]

[5 53 67 48 5 31 34 9 66 87 1 84 85 97 18 98 38 37 2 83 26 29 81 60 90 73 87 69 91 84 71 65 49 2 41 42 69 58 37 92 36 39 55 27 72 4 67 75 80 13 48 29 22 85 74 81 62 28 89 3 66 20 97 44 13 5 30 12 89 19 7 11 51 36 53 38 72 44 78 80 67 11 96 55 11 7 33 65 11 96 82 46 90 81 49 70 86 50 13 21]
