instances/knapsack/discrete/knapsack_100_7.lp
\ Model knapsack_100_7
\ LP format - for model browsing. Use MPS format to capture full model detail.
\ Signature: 0x98b4e0718ea0846a
Minimize
  - 97 x[0] - 57 x[1] - 23 x[2] - 75 x[3] - 36 x[4] - 44 x[5] - 88 x[6]
   - 66 x[7] - 21 x[8] - 73 x[9] - 34 x[10] - 50 x[11] - 66 x[12]
   - 17 x[13] - 86 x[14] - 55 x[15] - x[16] - 45 x[17] - 45 x[18]
   - 60 x[19] - 36 x[20] - 86 x[21] - 91 x[22] - 23 x[23] - 4 x[24]
   - 53 x[25] - 91 x[26] - 66 x[27] - 57 x[28] - 35 x[29] - 72 x[30]
   - 27 x[31] - 51 x[32] - 46 x[33] - 66 x[34] - 44 x[35] - 64 x[36]
   - 26 x[37] - 13 x[38] - 98 x[39] - 3 x[40] - 72 x[41] - 28 x[42]
   - 86 x[43] - 49 x[44] - 90 x[45] - 87 x[46] - 59 x[47] - 27 x[48]
   - 96 x[49] - 62 x[50] - 33 x[51] - 62 x[52] - 92 x[53] - 71 x[54]
   - 49 x[55] - 5 x[56] - 59 x[57] - 11 x[58] - 38 x[59] - 83 x[60] - x[61]
   - 40 x[62] - 40 x[63] - 9 x[64] - 56 x[65] - 96 x[66] - 60 x[67]
   - 95 x[68] - 60 x[69] - 24 x[70] - 58 x[71] - 20 x[72] - 12 x[73]
   - 9 x[74] - 85 x[75] - 13 x[76] - 56 x[77] - 87 x[78] - 46 x[79]
   - 26 x[80] - 5 x[81] - 76 x[82] - 21 x[83] - 76 x[84] - 43 x[85]
   - 49 x[86] - 46 x[87] - 55 x[88] - 81 x[89] - 97 x[90] - 32 x[91]
   - 36 x[92] - 3 x[93] - 7 x[94] - x[95] - 100 x[96] - 91 x[97] - 15 x[98]
   - 71 x[99]
Subject To
 primal_upper: 24 x[0] + 61 x[1] + 63 x[2] + 100 x[3] + 29 x[4] + 62 x[5]
   + 94 x[6] + 68 x[7] + 42 x[8] + 67 x[9] + 96 x[10] + 64 x[11] + 81 x[12]
   + 81 x[13] + 53 x[14] + 17 x[15] + 94 x[16] + 25 x[17] + 90 x[18]
   + 51 x[19] + 22 x[20] + 36 x[21] + 85 x[22] + 19 x[23] + 45 x[24]
   + 49 x[25] + 47 x[26] + 52 x[27] + 18 x[28] + 60 x[29] + 98 x[30]
   + 48 x[31] + 16 x[32] + 22 x[33] + 13 x[34] + 38 x[35] + 89 x[36]
   + 37 x[37] + 85 x[38] + 63 x[39] + 72 x[40] + 66 x[41] + 99 x[42]
   + 78 x[43] + 92 x[44] + 27 x[45] + 2 x[46] + 6 x[47] + 8 x[48]
   + 21 x[49] + 55 x[50] + 93 x[51] + 42 x[52] + 69 x[53] + 89 x[54]
   + 48 x[55] + 86 x[56] + 11 x[57] + 41 x[58] + 67 x[59] + 21 x[60]
   + 35 x[61] + 88 x[62] + 15 x[63] + 44 x[64] + 97 x[65] + 45 x[66]
   + 87 x[67] + 89 x[68] + 78 x[69] + 50 x[70] + 42 x[71] + 87 x[72]
   + 72 x[73] + 16 x[74] + 85 x[75] + 95 x[76] + 72 x[77] + 49 x[78]
   + 43 x[79] + 78 x[80] + 62 x[81] + 59 x[82] + 70 x[83] + 78 x[84]
   + 26 x[85] + 4 x[86] + 53 x[87] + 35 x[88] + 100 x[89] + 45 x[90]
   + 13 x[91] + 77 x[92] + 80 x[93] + 53 x[94] + 98 x[95] + 98 x[96]
   + 45 x[97] + 73 x[98] + 53 x[99] + 2.4 r[0] + 6.1 r[1] + 6.3 r[2]
   + 10 r[3] + 2.9 r[4] + 6.2 r[5] + 9.4 r[6] + 6.8 r[7] + 4.2 r[8]
   + 6.7 r[9] + 9.6 r[10] + 6.4 r[11] + 8.1 r[12] + 8.1 r[13] + 5.3 r[14]
   + 1.7 r[15] + 9.4 r[16] + 2.5 r[17] + 9 r[18] + 5.1 r[19] + 2.2 r[20]
   + 3.6 r[21] + 8.5 r[22] + 1.9 r[23] + 4.5 r[24] + 4.9 r[25] + 4.7 r[26]
   + 5.2 r[27] + 1.8 r[28] + 6 r[29] + 9.8 r[30] + 4.8 r[31] + 1.6 r[32]
   + 2.2 r[33] + 1.3 r[34] + 3.8 r[35] + 8.9 r[36] + 3.7 r[37] + 8.5 r[38]
   + 6.3 r[39] + 7.2 r[40] + 6.6 r[41] + 9.9 r[42] + 7.8 r[43] + 9.2 r[44]
   + 2.7 r[45] + 0.2 r[46] + 0.6 r[47] + 0.8 r[48] + 2.1 r[49] + 5.5 r[50]
   + 9.3 r[51] + 4.2 r[52] + 6.9 r[53] + 8.9 r[54] + 4.8 r[55] + 8.6 r[56]
   + 1.1 r[57] + 4.1 r[58] + 6.7 r[59] + 2.1 r[60] + 3.5 r[61] + 8.8 r[62]
   + 1.5 r[63] + 4.4 r[64] + 9.7 r[65] + 4.5 r[66] + 8.7 r[67] + 8.9 r[68]
   + 7.8 r[69] + 5 r[70] + 4.2 r[71] + 8.7 r[72] + 7.2 r[73] + 1.6 r[74]
   + 8.5 r[75] + 9.5 r[76] + 7.2 r[77] + 4.9 r[78] + 4.3 r[79] + 7.8 r[80]
   + 6.2 r[81] + 5.9 r[82] + 7 r[83] + 7.8 r[84] + 2.6 r[85] + 0.4 r[86]
   + 5.3 r[87] + 3.5 r[88] + 10 r[89] + 4.5 r[90] + 1.3 r[91] + 7.7 r[92]
   + 8 r[93] + 5.3 r[94] + 9.8 r[95] + 9.8 r[96] + 4.5 r[97] + 7.3 r[98]
   + 5.3 r[99] <= 541
 primal_lower: 3.269066778683243 x[0] + 0.3456650020225463 x[1]
   + 2.893646831336942 x[2] + 1.987844295167928 x[3]
   + 3.648394995008283 x[4] + 2.462200591607765 x[5]
   + 2.076328194263177 x[6] + 3.343031566930658 x[7]
   + 1.151295870820772 x[8] + 2.281808420056573 x[9]
   + 4.069519966754901 x[10] + 0.1378985917055714 x[11]
   + 0.8974860036971538 x[12] + 2.620543458474259 x[13]
   + 1.363638103145124 x[14] + 3.16169360092935 x[15]
   + 0.703967064141041 x[16] + 2.700745619057503 x[17]
   + 1.196933133235359 x[18] + 1.749253026942648 x[19]
   + 2.67037046557457 x[20] + 0.3715708166389072 x[21]
   + 2.303095468548086 x[22] + 1.627850293784013 x[23]
   + 4.093466510638202 x[24] + 0.2590885187718447 x[25]
   + 3.038897929485334 x[26] + 3.563241715069718 x[27]
   + 3.220204884751535 x[28] + 0.8712295097787597 x[29]
   + 2.818122960999549 x[30] + 1.679292483255699 x[31]
   + 1.645702122448043 x[32] + 0.7035979390720806 x[33]
   + 3.751472232833511 x[34] + 1.453747208480717 x[35]
   + 1.332975023145076 x[36] + 0.1391600643276923 x[37]
   + 4.11621910341683 x[38] + 1.104553948698165 x[39]
   + 2.085634873668505 x[40] + 2.51886803284593 x[41]
   + 0.1249231571503743 x[42] + 1.868290102549625 x[43]
   + 2.945976218758154 x[44] + 0.6761436404628123 x[45]
   + 3.552048670225361 x[46] + 2.13389710257006 x[47]
   + 3.852292253543052 x[48] + 2.68604209353833 x[49]
   + 3.938591667824678 x[50] + 1.503881189813116 x[51]
   + 0.8648816836620212 x[52] + 2.605005486851048 x[53]
   + 2.010479848494298 x[54] + 1.669522360262066 x[55]
   + 2.310333328188762 x[56] + 3.288995858841107 x[57]
   + 1.719492044783066 x[58] + 2.274461581277273 x[59]
   + 2.046778829406918 x[60] + 1.550491754561869 x[61]
   + 0.9875057324426634 x[62] + 2.382507463095064 x[63]
   + 1.194529161564194 x[64] + 3.390399752044566 x[65]
   + 0.2517622869488239 x[66] + 0.1689688328581342 x[67]
   + 1.107888445841565 x[68] + 3.224349997688976 x[69]
   + 2.391092726843661 x[70] + 1.389991765711905 x[71]
   + 0.9123235890354666 x[72] + 3.347510598994764 x[73]
   + 3.96200865321198 x[74] + 4.087720040987502 x[75]
   + 3.867448664230796 x[76] + 0.1167092349968417 x[77]
   + 1.335444962762437 x[78] + 0.2320498670834902 x[79]
   + 3.106041417273928 x[80] + 0.574746962636865 x[81]
   + 3.451919940317554 x[82] + 0.0744380554789023 x[83]
   + 1.917815427206412 x[84] + 3.103342444074801 x[85]
   + 2.010473421694233 x[86] + 1.409849350772557 x[87]
   + 1.758252920688746 x[88] + 1.913192824501104 x[89]
   + 0.7899848691627089 x[90] + 1.831568917658669 x[91]
   + 0.1363011762213285 x[92] + 3.864955223048287 x[93]
   + 2.155157144246757 x[94] + 1.127789673852161 x[95]
   + 1.292879032031199 x[96] + 3.93347522843154 x[97]
   + 2.143794080625045 x[98] + 4.098626604368034 x[99] + 29 u[0] + 46 u[1]
   + 84 u[2] + 25 u[3] + 22 u[4] + 91 u[5] + 59 u[6] + 61 u[7] + 95 u[8]
   + 80 u[9] + u[10] + 37 u[11] + 6 u[12] + 70 u[13] + 38 u[14] + 46 u[15]
   + 19 u[16] + 18 u[17] + 83 u[18] + 96 u[19] + 55 u[20] + 37 u[21]
   + 90 u[22] + 28 u[23] + 50 u[24] + 10 u[25] + 4 u[26] + 17 u[27]
   + 71 u[28] + 45 u[29] + 95 u[30] + 33 u[31] + 37 u[32] + 67 u[33]
   + 78 u[34] + 27 u[35] + 38 u[36] + 22 u[37] + 22 u[38] + 12 u[39]
   + 41 u[40] + 15 u[41] + 48 u[42] + 87 u[43] + 61 u[44] + 12 u[45]
   + 51 u[46] + 83 u[47] + 69 u[48] + 22 u[49] + 28 u[50] + 22 u[51]
   + 11 u[52] + 18 u[53] + 30 u[54] + 97 u[55] + 31 u[56] + 32 u[57]
   + 22 u[58] + 96 u[59] + 86 u[60] + 12 u[61] + 9 u[62] + 52 u[63]
   + 49 u[64] + 10 u[65] + 18 u[66] + 36 u[67] + 6 u[68] + 59 u[69]
   + 3 u[70] + 83 u[71] + 72 u[72] + 65 u[73] + 13 u[74] + 74 u[75]
   + 16 u[76] + 25 u[77] + 70 u[78] + 20 u[79] + 43 u[80] + 27 u[81]
   + 16 u[82] + 27 u[83] + 31 u[84] + 99 u[85] + 21 u[86] + 6 u[87]
   + 88 u[88] + 33 u[89] + 78 u[90] + 2 u[91] + 42 u[92] + 57 u[93]
   + 6 u[94] + 55 u[95] + 3 u[96] + 30 u[97] + 82 u[98] + 90 u[99]
   <= 47609
 mccormick1[0]: - u[0] + r[0] <= 0
 mccormick1[1]: - u[1] + r[1] <= 0
 mccormick1[2]: - u[2] + r[2] <= 0
 mccormick1[3]: - u[3] + r[3] <= 0
 mccormick1[4]: - u[4] + r[4] <= 0
 mccormick1[5]: - u[5] + r[5] <= 0
 mccormick1[6]: - u[6] + r[6] <= 0
 mccormick1[7]: - u[7] + r[7] <= 0
 mccormick1[8]: - u[8] + r[8] <= 0
 mccormick1[9]: - u[9] + r[9] <= 0
 mccormick1[10]: - u[10] + r[10] <= 0
 mccormick1[11]: - u[11] + r[11] <= 0
 mccormick1[12]: - u[12] + r[12] <= 0
 mccormick1[13]: - u[13] + r[13] <= 0
 mccormick1[14]: - u[14] + r[14] <= 0
 mccormick1[15]: - u[15] + r[15] <= 0
 mccormick1[16]: - u[16] + r[16] <= 0
 mccormick1[17]: - u[17] + r[17] <= 0
 mccormick1[18]: - u[18] + r[18] <= 0
 mccormick1[19]: - u[19] + r[19] <= 0
 mccormick1[20]: - u[20] + r[20] <= 0
 mccormick1[21]: - u[21] + r[21] <= 0
 mccormick1[22]: - u[22] + r[22] <= 0
 mccormick1[23]: - u[23] + r[23] <= 0
 mccormick1[24]: - u[24] + r[24] <= 0
 mccormick1[25]: - u[25] + r[25] <= 0
 mccormick1[26]: - u[26] + r[26] <= 0
 mccormick1[27]: - u[27] + r[27] <= 0
 mccormick1[28]: - u[28] + r[28] <= 0
 mccormick1[29]: - u[29] + r[29] <= 0
 mccormick1[30]: - u[30] + r[30] <= 0
 mccormick1[31]: - u[31] + r[31] <= 0
 mccormick1[32]: - u[32] + r[32] <= 0
 mccormick1[33]: - u[33] + r[33] <= 0
 mccormick1[34]: - u[34] + r[34] <= 0
 mccormick1[35]: - u[35] + r[35] <= 0
 mccormick1[36]: - u[36] + r[36] <= 0
 mccormick1[37]: - u[37] + r[37] <= 0
 mccormick1[38]: - u[38] + r[38] <= 0
 mccormick1[39]: - u[39] + r[39] <= 0
 mccormick1[40]: - u[40] + r[40] <= 0
 mccormick1[41]: - u[41] + r[41] <= 0
 mccormick1[42]: - u[42] + r[42] <= 0
 mccormick1[43]: - u[43] + r[43] <= 0
 mccormick1[44]: - u[44] + r[44] <= 0
 mccormick1[45]: - u[45] + r[45] <= 0
 mccormick1[46]: - u[46] + r[46] <= 0
 mccormick1[47]: - u[47] + r[47] <= 0
 mccormick1[48]: - u[48] + r[48] <= 0
 mccormick1[49]: - u[49] + r[49] <= 0
 mccormick1[50]: - u[50] + r[50] <= 0
 mccormick1[51]: - u[51] + r[51] <= 0
 mccormick1[52]: - u[52] + r[52] <= 0
 mccormick1[53]: - u[53] + r[53] <= 0
 mccormick1[54]: - u[54] + r[54] <= 0
 mccormick1[55]: - u[55] + r[55] <= 0
 mccormick1[56]: - u[56] + r[56] <= 0
 mccormick1[57]: - u[57] + r[57] <= 0
 mccormick1[58]: - u[58] + r[58] <= 0
 mccormick1[59]: - u[59] + r[59] <= 0
 mccormick1[60]: - u[60] + r[60] <= 0
 mccormick1[61]: - u[61] + r[61] <= 0
 mccormick1[62]: - u[62] + r[62] <= 0
 mccormick1[63]: - u[63] + r[63] <= 0
 mccormick1[64]: - u[64] + r[64] <= 0
 mccormick1[65]: - u[65] + r[65] <= 0
 mccormick1[66]: - u[66] + r[66] <= 0
 mccormick1[67]: - u[67] + r[67] <= 0
 mccormick1[68]: - u[68] + r[68] <= 0
 mccormick1[69]: - u[69] + r[69] <= 0
 mccormick1[70]: - u[70] + r[70] <= 0
 mccormick1[71]: - u[71] + r[71] <= 0
 mccormick1[72]: - u[72] + r[72] <= 0
 mccormick1[73]: - u[73] + r[73] <= 0
 mccormick1[74]: - u[74] + r[74] <= 0
 mccormick1[75]: - u[75] + r[75] <= 0
 mccormick1[76]: - u[76] + r[76] <= 0
 mccormick1[77]: - u[77] + r[77] <= 0
 mccormick1[78]: - u[78] + r[78] <= 0
 mccormick1[79]: - u[79] + r[79] <= 0
 mccormick1[80]: - u[80] + r[80] <= 0
 mccormick1[81]: - u[81] + r[81] <= 0
 mccormick1[82]: - u[82] + r[82] <= 0
 mccormick1[83]: - u[83] + r[83] <= 0
 mccormick1[84]: - u[84] + r[84] <= 0
 mccormick1[85]: - u[85] + r[85] <= 0
 mccormick1[86]: - u[86] + r[86] <= 0
 mccormick1[87]: - u[87] + r[87] <= 0
 mccormick1[88]: - u[88] + r[88] <= 0
 mccormick1[89]: - u[89] + r[89] <= 0
 mccormick1[90]: - u[90] + r[90] <= 0
 mccormick1[91]: - u[91] + r[91] <= 0
 mccormick1[92]: - u[92] + r[92] <= 0
 mccormick1[93]: - u[93] + r[93] <= 0
 mccormick1[94]: - u[94] + r[94] <= 0
 mccormick1[95]: - u[95] + r[95] <= 0
 mccormick1[96]: - u[96] + r[96] <= 0
 mccormick1[97]: - u[97] + r[97] <= 0
 mccormick1[98]: - u[98] + r[98] <= 0
 mccormick1[99]: - u[99] + r[99] <= 0
 mccormick2[0]: - x[0] + r[0] <= 0
 mccormick2[1]: - x[1] + r[1] <= 0
 mccormick2[2]: - x[2] + r[2] <= 0
 mccormick2[3]: - x[3] + r[3] <= 0
 mccormick2[4]: - x[4] + r[4] <= 0
 mccormick2[5]: - x[5] + r[5] <= 0
 mccormick2[6]: - x[6] + r[6] <= 0
 mccormick2[7]: - x[7] + r[7] <= 0
 mccormick2[8]: - x[8] + r[8] <= 0
 mccormick2[9]: - x[9] + r[9] <= 0
 mccormick2[10]: - x[10] + r[10] <= 0
 mccormick2[11]: - x[11] + r[11] <= 0
 mccormick2[12]: - x[12] + r[12] <= 0
 mccormick2[13]: - x[13] + r[13] <= 0
 mccormick2[14]: - x[14] + r[14] <= 0
 mccormick2[15]: - x[15] + r[15] <= 0
 mccormick2[16]: - x[16] + r[16] <= 0
 mccormick2[17]: - x[17] + r[17] <= 0
 mccormick2[18]: - x[18] + r[18] <= 0
 mccormick2[19]: - x[19] + r[19] <= 0
 mccormick2[20]: - x[20] + r[20] <= 0
 mccormick2[21]: - x[21] + r[21] <= 0
 mccormick2[22]: - x[22] + r[22] <= 0
 mccormick2[23]: - x[23] + r[23] <= 0
 mccormick2[24]: - x[24] + r[24] <= 0
 mccormick2[25]: - x[25] + r[25] <= 0
 mccormick2[26]: - x[26] + r[26] <= 0
 mccormick2[27]: - x[27] + r[27] <= 0
 mccormick2[28]: - x[28] + r[28] <= 0
 mccormick2[29]: - x[29] + r[29] <= 0
 mccormick2[30]: - x[30] + r[30] <= 0
 mccormick2[31]: - x[31] + r[31] <= 0
 mccormick2[32]: - x[32] + r[32] <= 0
 mccormick2[33]: - x[33] + r[33] <= 0
 mccormick2[34]: - x[34] + r[34] <= 0
 mccormick2[35]: - x[35] + r[35] <= 0
 mccormick2[36]: - x[36] + r[36] <= 0
 mccormick2[37]: - x[37] + r[37] <= 0
 mccormick2[38]: - x[38] + r[38] <= 0
 mccormick2[39]: - x[39] + r[39] <= 0
 mccormick2[40]: - x[40] + r[40] <= 0
 mccormick2[41]: - x[41] + r[41] <= 0
 mccormick2[42]: - x[42] + r[42] <= 0
 mccormick2[43]: - x[43] + r[43] <= 0
 mccormick2[44]: - x[44] + r[44] <= 0
 mccormick2[45]: - x[45] + r[45] <= 0
 mccormick2[46]: - x[46] + r[46] <= 0
 mccormick2[47]: - x[47] + r[47] <= 0
 mccormick2[48]: - x[48] + r[48] <= 0
 mccormick2[49]: - x[49] + r[49] <= 0
 mccormick2[50]: - x[50] + r[50] <= 0
 mccormick2[51]: - x[51] + r[51] <= 0
 mccormick2[52]: - x[52] + r[52] <= 0
 mccormick2[53]: - x[53] + r[53] <= 0
 mccormick2[54]: - x[54] + r[54] <= 0
 mccormick2[55]: - x[55] + r[55] <= 0
 mccormick2[56]: - x[56] + r[56] <= 0
 mccormick2[57]: - x[57] + r[57] <= 0
 mccormick2[58]: - x[58] + r[58] <= 0
 mccormick2[59]: - x[59] + r[59] <= 0
 mccormick2[60]: - x[60] + r[60] <= 0
 mccormick2[61]: - x[61] + r[61] <= 0
 mccormick2[62]: - x[62] + r[62] <= 0
 mccormick2[63]: - x[63] + r[63] <= 0
 mccormick2[64]: - x[64] + r[64] <= 0
 mccormick2[65]: - x[65] + r[65] <= 0
 mccormick2[66]: - x[66] + r[66] <= 0
 mccormick2[67]: - x[67] + r[67] <= 0
 mccormick2[68]: - x[68] + r[68] <= 0
 mccormick2[69]: - x[69] + r[69] <= 0
 mccormick2[70]: - x[70] + r[70] <= 0
 mccormick2[71]: - x[71] + r[71] <= 0
 mccormick2[72]: - x[72] + r[72] <= 0
 mccormick2[73]: - x[73] + r[73] <= 0
 mccormick2[74]: - x[74] + r[74] <= 0
 mccormick2[75]: - x[75] + r[75] <= 0
 mccormick2[76]: - x[76] + r[76] <= 0
 mccormick2[77]: - x[77] + r[77] <= 0
 mccormick2[78]: - x[78] + r[78] <= 0
 mccormick2[79]: - x[79] + r[79] <= 0
 mccormick2[80]: - x[80] + r[80] <= 0
 mccormick2[81]: - x[81] + r[81] <= 0
 mccormick2[82]: - x[82] + r[82] <= 0
 mccormick2[83]: - x[83] + r[83] <= 0
 mccormick2[84]: - x[84] + r[84] <= 0
 mccormick2[85]: - x[85] + r[85] <= 0
 mccormick2[86]: - x[86] + r[86] <= 0
 mccormick2[87]: - x[87] + r[87] <= 0
 mccormick2[88]: - x[88] + r[88] <= 0
 mccormick2[89]: - x[89] + r[89] <= 0
 mccormick2[90]: - x[90] + r[90] <= 0
 mccormick2[91]: - x[91] + r[91] <= 0
 mccormick2[92]: - x[92] + r[92] <= 0
 mccormick2[93]: - x[93] + r[93] <= 0
 mccormick2[94]: - x[94] + r[94] <= 0
 mccormick2[95]: - x[95] + r[95] <= 0
 mccormick2[96]: - x[96] + r[96] <= 0
 mccormick2[97]: - x[97] + r[97] <= 0
 mccormick2[98]: - x[98] + r[98] <= 0
 mccormick2[99]: - x[99] + r[99] <= 0
 mccormick3[0]: x[0] + u[0] - r[0] <= 1
 mccormick3[1]: x[1] + u[1] - r[1] <= 1
 mccormick3[2]: x[2] + u[2] - r[2] <= 1
 mccormick3[3]: x[3] + u[3] - r[3] <= 1
 mccormick3[4]: x[4] + u[4] - r[4] <= 1
 mccormick3[5]: x[5] + u[5] - r[5] <= 1
 mccormick3[6]: x[6] + u[6] - r[6] <= 1
 mccormick3[7]: x[7] + u[7] - r[7] <= 1
 mccormick3[8]: x[8] + u[8] - r[8] <= 1
 mccormick3[9]: x[9] + u[9] - r[9] <= 1
 mccormick3[10]: x[10] + u[10] - r[10] <= 1
 mccormick3[11]: x[11] + u[11] - r[11] <= 1
 mccormick3[12]: x[12] + u[12] - r[12] <= 1
 mccormick3[13]: x[13] + u[13] - r[13] <= 1
 mccormick3[14]: x[14] + u[14] - r[14] <= 1
 mccormick3[15]: x[15] + u[15] - r[15] <= 1
 mccormick3[16]: x[16] + u[16] - r[16] <= 1
 mccormick3[17]: x[17] + u[17] - r[17] <= 1
 mccormick3[18]: x[18] + u[18] - r[18] <= 1
 mccormick3[19]: x[19] + u[19] - r[19] <= 1
 mccormick3[20]: x[20] + u[20] - r[20] <= 1
 mccormick3[21]: x[21] + u[21] - r[21] <= 1
 mccormick3[22]: x[22] + u[22] - r[22] <= 1
 mccormick3[23]: x[23] + u[23] - r[23] <= 1
 mccormick3[24]: x[24] + u[24] - r[24] <= 1
 mccormick3[25]: x[25] + u[25] - r[25] <= 1
 mccormick3[26]: x[26] + u[26] - r[26] <= 1
 mccormick3[27]: x[27] + u[27] - r[27] <= 1
 mccormick3[28]: x[28] + u[28] - r[28] <= 1
 mccormick3[29]: x[29] + u[29] - r[29] <= 1
 mccormick3[30]: x[30] + u[30] - r[30] <= 1
 mccormick3[31]: x[31] + u[31] - r[31] <= 1
 mccormick3[32]: x[32] + u[32] - r[32] <= 1
 mccormick3[33]: x[33] + u[33] - r[33] <= 1
 mccormick3[34]: x[34] + u[34] - r[34] <= 1
 mccormick3[35]: x[35] + u[35] - r[35] <= 1
 mccormick3[36]: x[36] + u[36] - r[36] <= 1
 mccormick3[37]: x[37] + u[37] - r[37] <= 1
 mccormick3[38]: x[38] + u[38] - r[38] <= 1
 mccormick3[39]: x[39] + u[39] - r[39] <= 1
 mccormick3[40]: x[40] + u[40] - r[40] <= 1
 mccormick3[41]: x[41] + u[41] - r[41] <= 1
 mccormick3[42]: x[42] + u[42] - r[42] <= 1
 mccormick3[43]: x[43] + u[43] - r[43] <= 1
 mccormick3[44]: x[44] + u[44] - r[44] <= 1
 mccormick3[45]: x[45] + u[45] - r[45] <= 1
 mccormick3[46]: x[46] + u[46] - r[46] <= 1
 mccormick3[47]: x[47] + u[47] - r[47] <= 1
 mccormick3[48]: x[48] + u[48] - r[48] <= 1
 mccormick3[49]: x[49] + u[49] - r[49] <= 1
 mccormick3[50]: x[50] + u[50] - r[50] <= 1
 mccormick3[51]: x[51] + u[51] - r[51] <= 1
 mccormick3[52]: x[52] + u[52] - r[52] <= 1
 mccormick3[53]: x[53] + u[53] - r[53] <= 1
 mccormick3[54]: x[54] + u[54] - r[54] <= 1
 mccormick3[55]: x[55] + u[55] - r[55] <= 1
 mccormick3[56]: x[56] + u[56] - r[56] <= 1
 mccormick3[57]: x[57] + u[57] - r[57] <= 1
 mccormick3[58]: x[58] + u[58] - r[58] <= 1
 mccormick3[59]: x[59] + u[59] - r[59] <= 1
 mccormick3[60]: x[60] + u[60] - r[60] <= 1
 mccormick3[61]: x[61] + u[61] - r[61] <= 1
 mccormick3[62]: x[62] + u[62] - r[62] <= 1
 mccormick3[63]: x[63] + u[63] - r[63] <= 1
 mccormick3[64]: x[64] + u[64] - r[64] <= 1
 mccormick3[65]: x[65] + u[65] - r[65] <= 1
 mccormick3[66]: x[66] + u[66] - r[66] <= 1
 mccormick3[67]: x[67] + u[67] - r[67] <= 1
 mccormick3[68]: x[68] + u[68] - r[68] <= 1
 mccormick3[69]: x[69] + u[69] - r[69] <= 1
 mccormick3[70]: x[70] + u[70] - r[70] <= 1
 mccormick3[71]: x[71] + u[71] - r[71] <= 1
 mccormick3[72]: x[72] + u[72] - r[72] <= 1
 mccormick3[73]: x[73] + u[73] - r[73] <= 1
 mccormick3[74]: x[74] + u[74] - r[74] <= 1
 mccormick3[75]: x[75] + u[75] - r[75] <= 1
 mccormick3[76]: x[76] + u[76] - r[76] <= 1
 mccormick3[77]: x[77] + u[77] - r[77] <= 1
 mccormick3[78]: x[78] + u[78] - r[78] <= 1
 mccormick3[79]: x[79] + u[79] - r[79] <= 1
 mccormick3[80]: x[80] + u[80] - r[80] <= 1
 mccormick3[81]: x[81] + u[81] - r[81] <= 1
 mccormick3[82]: x[82] + u[82] - r[82] <= 1
 mccormick3[83]: x[83] + u[83] - r[83] <= 1
 mccormick3[84]: x[84] + u[84] - r[84] <= 1
 mccormick3[85]: x[85] + u[85] - r[85] <= 1
 mccormick3[86]: x[86] + u[86] - r[86] <= 1
 mccormick3[87]: x[87] + u[87] - r[87] <= 1
 mccormick3[88]: x[88] + u[88] - r[88] <= 1
 mccormick3[89]: x[89] + u[89] - r[89] <= 1
 mccormick3[90]: x[90] + u[90] - r[90] <= 1
 mccormick3[91]: x[91] + u[91] - r[91] <= 1
 mccormick3[92]: x[92] + u[92] - r[92] <= 1
 mccormick3[93]: x[93] + u[93] - r[93] <= 1
 mccormick3[94]: x[94] + u[94] - r[94] <= 1
 mccormick3[95]: x[95] + u[95] - r[95] <= 1
 mccormick3[96]: x[96] + u[96] - r[96] <= 1
 mccormick3[97]: x[97] + u[97] - r[97] <= 1
 mccormick3[98]: x[98] + u[98] - r[98] <= 1
 mccormick3[99]: x[99] + u[99] - r[99] <= 1
Bounds
Binaries
 x[0] x[1] x[2] x[3] x[4] x[5] x[6] x[7] x[8] x[9] x[10] x[11] x[12] x[13]
 x[14] x[15] x[16] x[17] x[18] x[19] x[20] x[21] x[22] x[23] x[24] x[25]
 x[26] x[27] x[28] x[29] x[30] x[31] x[32] x[33] x[34] x[35] x[36] x[37]
 x[38] x[39] x[40] x[41] x[42] x[43] x[44] x[45] x[46] x[47] x[48] x[49]
 x[50] x[51] x[52] x[53] x[54] x[55] x[56] x[57] x[58] x[59] x[60] x[61]
 x[62] x[63] x[64] x[65] x[66] x[67] x[68] x[69] x[70] x[71] x[72] x[73]
 x[74] x[75] x[76] x[77] x[78] x[79] x[80] x[81] x[82] x[83] x[84] x[85]
 x[86] x[87] x[88] x[89] x[90] x[91] x[92] x[93] x[94] x[95] x[96] x[97]
 x[98] x[99] u[0] u[1] u[2] u[3] u[4] u[5] u[6] u[7] u[8] u[9] u[10] u[11]
 u[12] u[13] u[14] u[15] u[16] u[17] u[18] u[19] u[20] u[21] u[22] u[23]
 u[24] u[25] u[26] u[27] u[28] u[29] u[30] u[31] u[32] u[33] u[34] u[35]
 u[36] u[37] u[38] u[39] u[40] u[41] u[42] u[43] u[44] u[45] u[46] u[47]
 u[48] u[49] u[50] u[51] u[52] u[53] u[54] u[55] u[56] u[57] u[58] u[59]
 u[60] u[61] u[62] u[63] u[64] u[65] u[66] u[67] u[68] u[69] u[70] u[71]
 u[72] u[73] u[74] u[75] u[76] u[77] u[78] u[79] u[80] u[81] u[82] u[83]
 u[84] u[85] u[86] u[87] u[88] u[89] u[90] u[91] u[92] u[93] u[94] u[95]
 u[96] u[97] u[98] u[99] r[0] r[1] r[2] r[3] r[4] r[5] r[6] r[7] r[8] r[9]
 r[10] r[11] r[12] r[13] r[14] r[15] r[16] r[17] r[18] r[19] r[20] r[21]
 r[22] r[23] r[24] r[25] r[26] r[27] r[28] r[29] r[30] r[31] r[32] r[33]
 r[34] r[35] r[36] r[37] r[38] r[39] r[40] r[41] r[42] r[43] r[44] r[45]
 r[46] r[47] r[48] r[49] r[50] r[51] r[52] r[53] r[54] r[55] r[56] r[57]
 r[58] r[59] r[60] r[61] r[62] r[63] r[64] r[65] r[66] r[67] r[68] r[69]
 r[70] r[71] r[72] r[73] r[74] r[75] r[76] r[77] r[78] r[79] r[80] r[81]
 r[82] r[83] r[84] r[85] r[86] r[87] r[88] r[89] r[90] r[91] r[92] r[93]
 r[94] r[95] r[96] r[97] r[98] r[99]
End
